100 36 100
71 60 61 33 39 80 53 48 98 73 39 80 70 29 40 67 1 18 46 50 54 42 68 94 10 44 67 25 30 83 96 90 44 81 30 77 86 30 27 60 70 7 82 99 49 53 70 47 53 20 53 48 40 47 58 84 15 36 66 50 84 9 47 66 39 24 4 21 3 16 91 11 98 43 11 47 48 33 95 1 54 48 1 94 48 60 79 63 96 45 65 80 6 12 98 97 88 3 19 92 
